c FILE			: spindle
c No. of vertices	: 8
c No. of directed edges	: 48
c Max. weight		: 1
c Min. weight		: 100
c A directed arc from u to v of weight w
c is represented below as ' a  u  v  w '
p sp 8 48
a 1 6 6
a 1 2 36
a 1 3 40
a 1 5 84
a 2 3 91
a 2 4 62
a 2 3 80
a 2 8 34
a 2 7 17
a 3 8 13
a 3 6 73
a 3 7 7
a 3 6 1
a 3 1 16
a 3 5 34
a 4 2 34
a 4 5 39
a 4 3 5
a 4 7 32
a 4 5 30
a 4 7 27
a 4 3 14
a 5 7 87
a 5 8 78
a 5 3 41
a 5 4 43
a 5 6 39
a 5 6 40
a 5 7 78
a 5 2 11
a 6 2 95
a 6 3 77
a 6 3 51
a 6 5 1
a 6 5 42
a 6 5 18
a 6 3 66
a 7 6 73
a 7 4 82
a 8 5 33
a 8 7 44
a 8 7 22
a 8 7 97
a 8 5 2
a 8 7 78
a 8 3 41
a 8 3 13
a 8 5 56
